NAME : HealthcareRouting
TYPE : CVRP
DIMENSION : 18
EDGE_WEIGHT_TYPE : EUC_2D
CAPACITY : 10000
NODE_COORD_SECTION
1 1433 2055
2 1717 1484
3 520 3760
4 2531 2827
5 1157 3530
6 1357 1068
7 887 2468
8 281 1318
9 169 1743
10 1319 48
11 2145 2316
12 1488 2735
13 322 524
14 1991 187
15 2540 1398
16 1198 2238
17 1640 3473
18 598 2432
DEMAND_SECTION
1 0
2 314
3 318
4 321
5 315
6 320
7 320
8 312
9 318
10 276
11 320
12 321
13 314
14 281
15 310
16 319
17 321
18 320
DEPOT_SECTION
1
-1
EOF